interdiction/MCDM/NO_CORR/GEN_FROM_60/16_ITEMS_1000_GEN/K5016W01.KNP.mps
NAME          BLANK   
ROWS
 N  OBJROW
 L  R0000000
COLUMNS
    C0000000  OBJROW     -786.         R0000000  412.        
    C0000001  OBJROW     -529.         R0000000  414.        
    C0000002  OBJROW     -730.         R0000000  375.        
    C0000003  OBJROW     -683.         R0000000  544.        
    C0000004  OBJROW     -236.         R0000000  792.        
    C0000005  OBJROW     -495.         R0000000  323.        
    C0000006  OBJROW     -99.          R0000000  979.        
    C0000007  OBJROW     -688.         R0000000  334.        
    C0000008  OBJROW     -985.         R0000000  86.         
    C0000009  OBJROW     -441.         R0000000  341.        
    C0000010  OBJROW     -217.         R0000000  70.         
    C0000011  OBJROW     -817.         R0000000  563.        
    C0000012  OBJROW     -913.         R0000000  162.        
    C0000013  OBJROW     -285.         R0000000  857.        
    C0000014  OBJROW     -615.         R0000000  989.        
    C0000015  OBJROW     -694.         R0000000  615.        
RHS
    RHS       R0000000  14156.      
BOUNDS
 BV BOUND     C0000000  1.          
 BV BOUND     C0000001  1.          
 BV BOUND     C0000002  1.          
 BV BOUND     C0000003  1.          
 BV BOUND     C0000004  1.          
 BV BOUND     C0000005  1.          
 BV BOUND     C0000006  1.          
 BV BOUND     C0000007  1.          
 BV BOUND     C0000008  1.          
 BV BOUND     C0000009  1.          
 BV BOUND     C0000010  1.          
 BV BOUND     C0000011  1.          
 BV BOUND     C0000012  1.          
 BV BOUND     C0000013  1.          
 BV BOUND     C0000014  1.          
 BV BOUND     C0000015  1.          
ENDATA
