data/MCDM/NO_CORR/GEN_FROM_60/16_ITEMS_1000_GEN/K5016W01.KNP.txt
N 16
M 17
LC 16
LC 17
LC 18
LC 19
LC 20
LC 21
LC 22
LC 23
LC 24
LC 25
LC 26
LC 27
LC 28
LC 29
LC 30
LC 31
LR 1
LR 2
LR 3
LR 4
LR 5
LR 6
LR 7
LR 8
LR 9
LR 10
LR 11
LR 12
LR 13
LR 14
LR 15
LR 16
LR 17
LO -786
LO -529
LO -730
LO -683
LO -236
LO -495
LO -99
LO -688
LO -985
LO -441
LO -217
LO -817
LO -913
LO -285
LO -615
LO -694
OS 1
IC 680
IC 635
IC 837
IC 216
IC 961
IC 802
IC 353
IC 600
IC 289
IC 88
IC 244
IC 927
IC 606
IC 225
IC 268
IC 283
IB 4007
